NAME : rbg016a.tw.938.tour
COMMENT : Length = 938
COMMENT : Found by LKH [Keld Helsgaun] Thu Jan 16 16:40:34 2020
TYPE : TOUR
DIMENSION : 17
TOUR_SECTION
1
7
4
3
2
6
5
8
9
10
13
12
11
14
17
15
16
-1
EOF
